c *********************************
c * Circuit generated by BenCGen
c *
c * Parity_11
c *
c * Ports with 1 gate(s): 1
c * Ports with 2 gate(s): 11
c * Total gates: 12
c *********************************
p cnf 23 45
1 14 0
-1 -14 0
1 -13 0
14 -13 0
-1 -14 13 0
1 2 -15 0
-1 2 15 0
1 -2 15 0
-1 -2 -15 0
3 4 -16 0
-3 4 16 0
3 -4 16 0
-3 -4 -16 0
5 6 -17 0
-5 6 17 0
5 -6 17 0
-5 -6 -17 0
7 8 -18 0
-7 8 18 0
7 -8 18 0
-7 -8 -18 0
9 10 -19 0
-9 10 19 0
9 -10 19 0
-9 -10 -19 0
15 16 -20 0
-15 16 20 0
15 -16 20 0
-15 -16 -20 0
17 18 -21 0
-17 18 21 0
17 -18 21 0
-17 -18 -21 0
19 11 -22 0
-19 11 22 0
19 -11 22 0
-19 -11 -22 0
20 21 -23 0
-20 21 23 0
20 -21 23 0
-20 -21 -23 0
23 22 -12 0
-23 22 12 0
23 -22 12 0
-23 -22 -12 0
